(set-info :Origin "This instance was generated by: BanditFuzz-- an RL fuzzer for SMT solvers" )
(set-info :Author "Joe Scott, Fed Mora, Vijay Ganesh" )
(set-info :Contact "Joe Scott, joseph.scott@uwaterloo.ca")
(set-logic QF_BV)
(declare-const bool_0 Bool)
(declare-const bool_1 Bool)
(declare-const bool_2 Bool)
(declare-const bool_3 Bool)
(declare-const bool_4 Bool)
(declare-const bv_0 (_ BitVec 32))
(declare-const bv_1 (_ BitVec 32))
(declare-const bv_2 (_ BitVec 32))
(declare-const bv_3 (_ BitVec 32))
(declare-const bv_4 (_ BitVec 32))
(assert (bvuge (bvsmod (bvor bv_1 bv_0) (bvsub bv_4 bv_4)) (bvudiv (bvsmod bv_1 bv_4) (bvadd #x8e991c5c  bv_2))))
(assert (bvsgt (bvshl (bvurem #xc9bd3309  #x664a93c4 ) (bvadd #x73c65d4f  bv_3)) (bvadd (bvmul #x7a857de4  #xd8eb5c77 ) (bvsdiv #x736a78b4  bv_3))))
(assert (bvsle (bvnor (bvxnor bv_0 bv_3) (bvand bv_4 #x4fb9dbde )) (bvashr (bvor bv_2 bv_3) (bvxnor #x734f0ac9  #xed53ea8b ))))
(assert (xor (bvuge (bvashr bv_3 #xd572b361 ) (bvsrem bv_4 #xbb0c66a3 )) (bvule (bvshl #xf2e24b40  bv_4) (bvlshr #xfb580343  #x6cf850b0 ))))
(assert (bvsgt (bvand (bvxor bv_4 #x98de813c ) (bvnand #xab02ee37  bv_1)) (bvnand (bvxor bv_0 bv_4) (bvmul #x6fa168c5  #x895b485b ))))
(check-sat)
(exit)
